objective value:                                   -3
t_n_24                                              1 	(obj:-1)
t_n_694                                             1 	(obj:-1)
t_n_1272                                            1 	(obj:-1)
